1 1 2 0
1 1 3 0
1 2 -4 0
1 2 5 0
1 -6 -7 0
1 -6 4 0
1 -6 8 0
1 -6 -9 0
1 6 5 0
1 10 -3 0
1 -3 -2 0
1 -3 1 0
1 -11 12 0
1 11 -10 0
1 11 2 0
1 -4 -13 0
1 -4 -14 0
1 4 1 0
1 5 14 0
1 -5 -15 0
1 -5 -1 0
1 -5 16 0
1 17 11 0
1 18 -11 0
1 19 -7 0
1 19 20 0
1 20 21 0
1 -20 3 0
1 -20 22 0
1 8 23 0
1 8 7 0
1 -8 20 0
1 8 18 0
1 -8 24 0
1 8 19 0
1 -8 17 0
1 -7 25 0
1 7 20 0
1 -7 -26 0
1 22 -27 0
1 22 -10 0
1 22 28 0
1 -22 -19 0
1 22 -17 0
1 -29 30 0
1 29 12 0
1 29 18 0
1 29 -22 0
1 -29 28 0
1 -29 31 0
1 -32 -7 0
1 -32 31 0
1 -32 33 0
1 25 -12 0
1 -25 34 0
1 25 -8 0
1 25 33 0
1 -26 23 0
1 26 8 0
1 26 -35 0
1 23 7 0
1 -35 -25 0
1 35 -21 0
1 -35 36 0
1 -35 26 0
1 -35 -19 0
1 35 37 0
1 -21 -23 0
1 21 -25 0
1 21 35 0
1 -33 25 0
1 -33 -20 0
1 33 -34 0
1 33 38 0
1 34 -23 0
1 34 -25 0
1 -34 -39 0
1 -34 -36 0
1 -34 40 0
1 34 -41 0
1 34 -32 0
1 -34 19 0
1 34 -33 0
1 -34 -37 0
1 42 43 0
1 -9 44 0
1 9 -45 0
1 9 46 0
1 9 47 0
1 -46 44 0
1 -45 -48 0
1 -45 49 0
1 45 9 0
1 -43 50 0
1 -43 -14 0
1 -43 51 0
1 -44 -52 0
1 44 46 0
1 -44 -48 0
1 -44 -53 0
1 44 -54 0
1 -55 52 0
1 -55 56 0
1 -55 -57 0
1 -49 14 0
1 -49 -58 0
1 49 -59 0
1 -14 -56 0
1 -14 -43 0
1 -14 60 0
1 -15 -13 0
1 15 61 0
1 15 -59 0
1 -15 -60 0
1 13 62 0
1 -13 -43 0
1 13 63 0
1 -58 -64 0
1 58 -14 0
1 -58 65 0
1 58 -9 0
1 60 -14 0
1 -60 31 0
1 60 66 0
1 -67 13 0
1 -67 14 0
1 67 49 0
1 59 -14 0
1 59 46 0
1 59 48 0
1 59 -15 0
1 59 -68 0
1 59 -9 0
1 -31 -29 0
1 31 58 0
1 -31 -5 0
1 12 29 0
1 -12 25 0
1 12 -22 0
1 12 -31 0
1 12 -11 0
1 28 -29 0
1 28 27 0
1 -28 69 0
1 28 -70 0
1 28 -63 0
1 -27 62 0
1 27 -22 0
1 -27 -60 0
1 62 -12 0
1 -62 -13 0
1 -62 41 0
1 -62 -28 0
1 -62 71 0
1 62 -72 0
1 62 73 0
1 -71 -72 0
1 -61 27 0
1 -61 -12 0
1 61 -74 0
1 63 75 0
1 -41 -7 0
1 -41 22 0
1 -41 33 0
1 -73 -22 0
1 -73 -16 0
1 -40 -76 0
1 40 30 0
1 -40 77 0
1 -40 -33 0
1 38 -76 0
1 -38 24 0
1 38 16 0
1 -77 -76 0
1 -77 -78 0
1 -77 3 0
1 -77 28 0
1 -77 79 0
1 -77 -80 0
1 77 37 0
1 -76 40 0
1 -76 77 0
1 76 11 0
1 -69 -27 0
1 69 -78 0
1 -69 -74 0
1 16 -81 0
1 -16 38 0
1 16 -82 0
1 36 -76 0
1 36 30 0
1 36 -83 0
1 36 74 0
1 36 33 0
1 -37 -76 0
1 37 -34 0
1 37 -21 0
1 -37 -36 0
1 -37 -84 0
1 -85 -30 0
1 85 80 0
1 -85 24 0
1 -80 -85 0
1 80 77 0
1 -80 84 0
1 80 24 0
1 80 81 0
1 -24 86 0
1 -24 87 0
1 24 -88 0
1 -83 7 0
1 -83 -86 0
1 -83 85 0
1 83 -89 0
1 -83 88 0
1 -83 80 0
1 83 -37 0
1 84 -90 0
1 -84 -91 0
1 84 -40 0
1 -84 79 0
1 -84 80 0
1 -30 78 0
1 30 -40 0
1 -30 -84 0
1 -30 92 0
1 -86 93 0
1 86 88 0
1 88 83 0
1 88 -39 0
1 -88 -86 0
1 -88 -24 0
1 88 93 0
1 -94 -91 0
1 94 24 0
1 95 -96 0
1 -95 97 0
1 95 -89 0
1 95 -35 0
1 95 98 0
1 96 99 0
1 -96 -94 0
1 -96 -21 0
1 96 85 0
1 -96 -97 0
1 -93 99 0
1 -93 -94 0
1 93 -85 0
1 -93 87 0
1 -93 -33 0
1 -93 -88 0
1 -93 -80 0
1 39 100 0
1 39 -90 0
1 -39 94 0
1 39 86 0
1 39 -88 0
1 101 102 0
1 101 103 0
1 -101 104 0
1 -101 -105 0
1 106 -42 0
1 -47 102 0
1 -47 -107 0
1 47 108 0
1 47 109 0
1 110 -111 0
1 110 103 0
1 104 107 0
1 104 112 0
1 104 -47 0
1 -107 106 0
1 -107 113 0
1 107 -53 0
1 103 -114 0
1 103 102 0
1 103 -115 0
1 -103 -113 0
1 103 -116 0
1 -103 101 0
1 -102 117 0
1 102 106 0
1 102 118 0
1 102 -47 0
1 54 56 0
1 54 -104 0
1 54 119 0
1 56 108 0
1 -56 -54 0
1 -56 -119 0
1 -53 109 0
1 52 -107 0
1 52 108 0
1 52 120 0
1 52 -53 0
1 -52 121 0
1 -119 -50 0
1 119 56 0
1 -119 54 0
1 -120 -122 0
1 -120 -52 0
1 120 110 0
1 120 123 0
1 120 54 0
1 109 -52 0
1 109 56 0
1 109 -124 0
1 -109 -47 0
1 -108 125 0
1 108 -115 0
1 -108 56 0
1 -108 -113 0
1 -108 -47 0
1 48 -50 0
1 -48 120 0
1 -48 126 0
1 48 -55 0
1 50 -44 0
1 50 45 0
1 50 -120 0
1 -50 -119 0
1 -50 -121 0
1 70 -127 0
1 70 119 0
1 -128 27 0
1 -128 -129 0
1 128 -57 0
1 -128 59 0
1 128 -119 0
1 -127 50 0
1 127 -130 0
1 127 -75 0
1 127 -131 0
1 -127 -132 0
1 -127 -133 0
1 -126 52 0
1 -126 -130 0
1 -126 75 0
1 126 -48 0
1 -121 -122 0
1 -121 -50 0
1 121 -134 0
1 -121 -123 0
1 -121 -48 0
1 121 53 0
1 121 132 0
1 -129 50 0
1 -129 -130 0
1 -129 135 0
1 -129 -123 0
1 -129 136 0
1 -131 64 0
1 -131 57 0
1 131 -51 0
1 -131 -60 0
1 64 67 0
1 64 -58 0
1 64 -59 0
1 64 63 0
1 -64 73 0
1 75 127 0
1 -75 126 0
1 -75 66 0
1 133 137 0
1 -133 -61 0
1 133 51 0
1 133 -63 0
1 -137 -64 0
1 -137 -138 0
1 137 -139 0
1 -137 72 0
1 -51 139 0
1 51 81 0
1 51 72 0
1 -51 133 0
1 140 -44 0
1 140 -128 0
1 140 -75 0
1 -140 -131 0
1 140 -70 0
1 140 141 0
1 140 142 0
1 -140 -133 0
1 -57 -128 0
1 -57 130 0
1 57 131 0
1 -57 141 0
1 -57 132 0
1 74 61 0
1 -74 -71 0
1 72 -137 0
1 -72 -143 0
1 -72 -69 0
1 -72 51 0
1 72 16 0
1 -139 65 0
1 139 69 0
1 139 -81 0
1 -139 16 0
1 81 -51 0
1 -81 -68 0
1 -81 144 0
1 81 145 0
1 -65 -139 0
1 -65 74 0
1 -65 146 0
1 -65 72 0
1 -65 133 0
1 -66 147 0
1 -66 -91 0
1 66 146 0
1 66 81 0
1 66 133 0
1 -143 67 0
1 -143 139 0
1 143 75 0
1 68 59 0
1 68 -148 0
1 -68 133 0
1 -78 -76 0
1 -78 86 0
1 -78 -65 0
1 78 -144 0
1 -78 -145 0
1 79 65 0
1 79 -149 0
1 -79 150 0
1 -79 -69 0
1 -79 84 0
1 79 -16 0
1 -91 151 0
1 -91 30 0
1 -91 -152 0
1 -91 149 0
1 -91 153 0
1 -92 -65 0
1 -92 -149 0
1 150 139 0
1 -150 154 0
1 150 87 0
1 -145 92 0
1 145 71 0
1 149 -61 0
1 -149 -139 0
1 149 146 0
1 144 -155 0
1 -144 -146 0
1 144 -92 0
1 144 79 0
1 90 30 0
1 -90 -147 0
1 -90 156 0
1 -90 84 0
1 90 24 0
1 87 -90 0
1 87 -150 0
1 -87 156 0
1 -87 153 0
1 87 -145 0
1 87 -82 0
1 100 157 0
1 -100 158 0
1 100 -156 0
1 -100 93 0
1 159 -150 0
1 -159 -160 0
1 -159 82 0
1 -153 99 0
1 153 -91 0
1 153 -161 0
1 151 100 0
1 -151 -153 0
1 -156 -162 0
1 156 -100 0
1 -156 69 0
1 -156 163 0
1 156 -164 0
1 156 -87 0
1 -156 82 0
1 -82 162 0
1 -82 90 0
1 -82 -161 0
1 -82 -165 0
1 -99 157 0
1 -99 153 0
1 97 -151 0
1 97 158 0
1 97 -39 0
1 -97 -163 0
1 97 -160 0
1 97 -166 0
1 -97 93 0
1 167 -157 0
1 167 -168 0
1 167 -153 0
1 -167 169 0
1 168 -170 0
1 -168 166 0
1 -166 -100 0
1 -166 158 0
1 -166 171 0
1 166 -24 0
1 -166 -172 0
1 166 -167 0
1 158 83 0
1 158 171 0
1 158 -97 0
1 -160 -157 0
1 -160 -159 0
1 160 -173 0
1 -160 -167 0
1 157 -99 0
1 157 -174 0
1 -157 161 0
1 157 168 0
1 -175 -176 0
1 175 170 0
1 -175 177 0
1 175 -166 0
1 -175 -178 0
1 179 178 0
1 -98 -177 0
1 -98 -95 0
1 -98 -175 0
1 170 -96 0
1 -170 -168 0
1 -178 -180 0
1 -178 -168 0
1 178 93 0
1 -178 175 0
1 178 -167 0
1 -176 -168 0
1 -176 -181 0
1 176 -179 0
1 176 167 0
1 -182 183 0
1 184 106 0
1 -185 47 0
1 -111 -186 0
1 -111 187 0
1 -183 111 0
1 -183 -184 0
1 188 189 0
1 -188 116 0
1 -190 -111 0
1 -187 111 0
1 -187 185 0
1 -116 -186 0
1 -116 -191 0
1 116 -188 0
1 -189 -56 0
1 -189 183 0
1 -189 -186 0
1 -189 116 0
1 -189 192 0
1 -118 -193 0
1 118 102 0
1 118 186 0
1 117 194 0
1 191 125 0
1 191 111 0
1 -191 -113 0
1 191 116 0
1 -191 185 0
1 -191 192 0
1 -192 195 0
1 192 -125 0
1 -192 -118 0
1 186 -189 0
1 186 111 0
1 -186 196 0
1 -186 116 0
1 186 -185 0
1 -194 -186 0
1 194 -196 0
1 194 116 0
1 194 185 0
1 -113 197 0
1 113 107 0
1 113 -102 0
1 -113 198 0
1 113 -48 0
1 115 -50 0
1 115 -102 0
1 -115 -108 0
1 199 197 0
1 199 125 0
1 -199 108 0
1 199 -200 0
1 199 -114 0
1 199 -109 0
1 -125 197 0
1 -125 128 0
1 -125 -108 0
1 125 114 0
1 125 -112 0
1 -125 -192 0
1 200 -193 0
1 -200 201 0
1 -200 -123 0
1 -193 122 0
1 193 202 0
1 193 115 0
1 193 -118 0
1 193 136 0
1 -198 -195 0
1 198 -196 0
1 -198 -199 0
1 197 -196 0
1 -197 203 0
1 -123 -193 0
1 -123 -204 0
1 123 -120 0
1 122 200 0
1 -122 112 0
1 -134 -205 0
1 -134 75 0
1 -134 -121 0
1 -136 112 0
1 136 124 0
1 -136 121 0
1 -136 133 0
1 -112 -206 0
1 112 -207 0
1 112 130 0
1 112 208 0
1 -112 -134 0
1 112 -123 0
1 204 122 0
1 204 107 0
1 204 209 0
1 204 130 0
1 204 -134 0
1 204 199 0
1 204 -132 0
1 -204 -136 0
1 -114 201 0
1 -114 199 0
1 205 125 0
1 205 210 0
1 205 -123 0
1 -205 211 0
1 205 212 0
1 130 -213 0
1 -130 126 0
1 -130 -214 0
1 130 -121 0
1 132 127 0
1 132 -213 0
1 -132 130 0
1 132 112 0
1 -207 215 0
1 -207 -216 0
1 -207 -142 0
1 -207 -214 0
1 -142 -204 0
1 142 213 0
1 -142 -217 0
1 142 112 0
1 -142 81 0
1 -142 -218 0
1 214 -219 0
1 -214 -152 0
1 214 -138 0
1 214 130 0
1 -214 -134 0
1 -214 220 0
1 -214 -148 0
1 -214 -141 0
1 -214 -132 0
1 -214 136 0
1 -217 120 0
1 -217 -220 0
1 217 -148 0
1 217 -141 0
1 217 214 0
1 -217 132 0
1 217 -136 0
1 124 219 0
1 -124 -134 0
1 -124 -220 0
1 -124 221 0
1 -124 222 0
1 -124 -132 0
1 213 -206 0
1 -213 -207 0
1 -138 143 0
1 138 51 0
1 -138 214 0
1 138 -218 0
1 141 215 0
1 -141 51 0
1 141 214 0
1 152 -215 0
1 -152 223 0
1 -152 -143 0
1 -152 217 0
1 -152 -135 0
1 152 -224 0
1 -148 -143 0
1 148 135 0
1 148 225 0
1 148 92 0
1 148 214 0
1 215 226 0
1 215 -138 0
1 -215 -227 0
1 215 -155 0
1 215 -148 0
1 227 -126 0
1 227 155 0
1 227 148 0
1 -218 -228 0
1 135 -229 0
1 135 -152 0
1 -135 -207 0
1 135 230 0
1 -135 -231 0
1 -135 -220 0
1 -135 -148 0
1 -147 232 0
1 147 -219 0
1 147 223 0
1 -147 -65 0
1 -147 146 0
1 -146 220 0
1 233 232 0
1 233 223 0
1 -233 -234 0
1 155 223 0
1 155 -234 0
1 -223 147 0
1 -223 235 0
1 223 155 0
1 -223 169 0
1 225 -163 0
1 -225 146 0
1 -225 -236 0
1 225 169 0
1 232 233 0
1 -232 -147 0
1 -232 152 0
1 -232 237 0
1 232 -155 0
1 232 -224 0
1 224 -228 0
1 -224 -147 0
1 -224 -237 0
1 224 -238 0
1 -224 -231 0
1 224 57 0
1 162 -99 0
1 -162 239 0
1 162 163 0
1 163 -162 0
1 -163 223 0
1 -163 234 0
1 163 239 0
1 163 -149 0
1 163 -97 0
1 163 231 0
1 -169 -240 0
1 169 -241 0
1 165 -154 0
1 -165 240 0
1 -239 233 0
1 -239 240 0
1 -239 65 0
1 239 242 0
1 239 169 0
1 240 233 0
1 240 163 0
1 -240 155 0
1 -240 -66 0
1 240 -242 0
1 -234 143 0
1 -234 243 0
1 234 237 0
1 234 -165 0
1 234 163 0
1 -244 233 0
1 244 -155 0
1 -244 245 0
1 242 151 0
1 -242 161 0
1 -242 -154 0
1 -242 -156 0
1 -242 153 0
1 -161 237 0
1 -161 154 0
1 161 -153 0
1 -246 -247 0
1 246 -174 0
1 -246 -154 0
1 174 248 0
1 174 -164 0
1 -174 -249 0
1 174 -246 0
1 154 -250 0
1 -154 174 0
1 -154 169 0
1 -241 165 0
1 241 -169 0
1 -251 252 0
1 251 253 0
1 251 254 0
1 251 -246 0
1 251 -169 0
1 -255 256 0
1 -255 -242 0
1 -255 169 0
1 257 -158 0
1 257 -176 0
1 -257 154 0
1 257 -249 0
1 257 254 0
1 -250 -176 0
1 -250 154 0
1 -250 -241 0
1 258 259 0
1 -258 -260 0
1 -258 249 0
1 261 -249 0
1 -261 258 0
1 261 178 0
1 261 -241 0
1 -249 -181 0
1 -249 258 0
1 -249 -246 0
1 -259 262 0
1 259 -263 0
1 259 249 0
1 259 258 0
1 -259 -246 0
1 -164 -247 0
1 -164 156 0
1 -164 264 0
1 164 -246 0
1 -247 -262 0
1 -247 -252 0
1 -247 -257 0
1 181 -259 0
1 -181 -260 0
1 -181 -173 0
1 181 98 0
1 -180 -176 0
1 -180 -181 0
1 180 98 0
1 263 -265 0
1 263 259 0
1 263 260 0
1 -263 266 0
1 -265 -259 0
1 -265 260 0
1 172 -180 0
1 -172 -267 0
1 172 -263 0
1 172 -258 0
1 268 -261 0
1 268 -269 0
1 -268 267 0
1 -268 -270 0
1 -173 -160 0
1 173 271 0
1 -260 -262 0
1 260 -180 0
1 260 -264 0
1 -260 271 0
1 267 -264 0
1 267 272 0
1 -273 -262 0
1 273 274 0
1 -269 268 0
1 -269 -266 0
1 -269 -172 0
1 270 -268 0
1 270 -269 0
1 270 -271 0
1 -272 263 0
1 272 98 0
1 -274 -265 0
1 -274 267 0
1 -274 -263 0
1 -275 265 0
1 -275 266 0
1 275 -178 0
1 266 176 0
1 -266 -267 0
1 -196 186 0
1 -196 -192 0
1 195 -276 0
1 195 -198 0
1 -195 -196 0
1 -195 -277 0
1 -278 -279 0
1 278 280 0
1 281 -197 0
1 281 -198 0
1 -281 136 0
1 -276 195 0
1 276 -183 0
1 -282 -201 0
1 -282 278 0
1 -283 -277 0
1 277 195 0
1 277 283 0
1 -277 -278 0
1 277 196 0
1 -201 193 0
1 -201 205 0
1 -201 -130 0
1 201 198 0
1 -201 200 0
1 -201 -203 0
1 -203 -201 0
1 -203 200 0
1 -203 114 0
1 203 -282 0
1 -216 -202 0
1 -216 205 0
1 216 276 0
1 216 279 0
1 -216 282 0
1 212 -205 0
1 -212 276 0
1 212 -284 0
1 -212 285 0
1 279 201 0
1 279 212 0
1 286 287 0
1 286 216 0
1 -286 -201 0
1 -286 278 0
1 -286 -288 0
1 286 -211 0
1 286 -212 0
1 -286 192 0
1 289 -280 0
1 289 -212 0
1 280 281 0
1 -280 290 0
1 206 291 0
1 -206 -205 0
1 -206 -204 0
1 -206 138 0
1 -206 -284 0
1 206 -285 0
1 -206 114 0
1 -206 -211 0
1 211 -286 0
1 -211 204 0
1 -211 -213 0
1 -211 284 0
1 211 -114 0
1 287 291 0
1 287 202 0
1 287 -152 0
1 -287 -284 0
1 -287 -221 0
1 -287 -208 0
1 -221 -286 0
1 221 -291 0
1 -221 -285 0
1 -221 292 0
1 -285 -219 0
1 -285 -206 0
1 -285 -216 0
1 -285 200 0
1 -202 -293 0
1 -202 -219 0
1 -202 -206 0
1 -202 -216 0
1 202 -220 0
1 202 285 0
1 202 211 0
1 284 -293 0
1 -284 290 0
1 284 -294 0
1 291 197 0
1 291 295 0
1 291 -211 0
1 -219 202 0
1 219 290 0
1 219 210 0
1 219 -208 0
1 -219 -214 0
1 -219 -218 0
1 -220 -210 0
1 -220 217 0
1 220 -146 0
1 -220 288 0
1 220 208 0
1 220 -218 0
1 -229 -210 0
1 229 296 0
1 229 -135 0
1 -229 -208 0
1 -229 -218 0
1 -297 229 0
1 -297 -202 0
1 -297 -209 0
1 297 -298 0
1 -297 155 0
1 -297 285 0
1 -297 -218 0
1 208 -219 0
1 -208 287 0
1 208 297 0
1 208 220 0
1 -208 221 0
1 208 -112 0
1 -208 299 0
1 209 300 0
1 -209 228 0
1 -209 231 0
1 209 -297 0
1 209 -220 0
1 -209 -208 0
1 209 299 0
1 -292 229 0
1 -292 -219 0
1 292 -301 0
1 -292 302 0
1 -210 293 0
1 -210 -229 0
1 210 -219 0
1 -210 303 0
1 -210 -294 0
1 -228 162 0
1 -228 215 0
1 228 -227 0
1 -228 224 0
1 -228 222 0
1 -231 -232 0
1 231 296 0
1 231 224 0
1 231 -222 0
1 231 -218 0
1 -300 226 0
1 -300 232 0
1 -300 -298 0
1 300 -238 0
1 300 304 0
1 300 -222 0
1 300 -169 0
1 -238 -226 0
1 -238 -298 0
1 -238 230 0
1 -238 222 0
1 238 305 0
1 -305 -306 0
1 305 248 0
1 305 -297 0
1 305 307 0
1 -305 245 0
1 -298 228 0
1 298 -229 0
1 298 -308 0
1 298 238 0
1 222 228 0
1 222 -306 0
1 222 309 0
1 -222 -238 0
1 -222 231 0
1 -222 297 0
1 222 -310 0
1 296 -228 0
1 296 306 0
1 296 -213 0
1 296 -311 0
1 237 -234 0
1 -237 298 0
1 -237 -230 0
1 -237 225 0
1 237 -244 0
1 245 -235 0
1 245 -305 0
1 -248 226 0
1 248 -312 0
1 248 305 0
1 -226 -215 0
1 -226 -313 0
1 226 -238 0
1 226 -245 0
1 304 -300 0
1 304 -256 0
1 -304 313 0
1 304 237 0
1 304 -253 0
1 -304 -245 0
1 -314 -315 0
1 314 -238 0
1 -230 316 0
1 -230 -306 0
1 230 -135 0
1 -230 317 0
1 230 245 0
1 254 257 0
1 -254 240 0
1 313 306 0
1 -313 239 0
1 -313 304 0
1 313 318 0
1 -253 -235 0
1 -253 -258 0
1 -253 -319 0
1 -256 -226 0
1 256 -315 0
1 -256 -235 0
1 -256 -243 0
1 -256 320 0
1 -235 321 0
1 -235 -256 0
1 235 -252 0
1 235 -253 0
1 -236 -322 0
1 -236 -256 0
1 236 -235 0
1 236 252 0
1 -312 316 0
1 312 256 0
1 -312 323 0
1 312 -317 0
1 312 254 0
1 312 -245 0
1 318 324 0
1 -318 313 0
1 318 -325 0
1 318 245 0
1 -252 -243 0
1 252 154 0
1 252 -164 0
1 -252 326 0
1 321 -243 0
1 -321 -327 0
1 321 -251 0
1 -321 154 0
1 -321 236 0
1 -321 -326 0
1 -321 -241 0
1 328 -329 0
1 -328 -330 0
1 322 324 0
1 -322 -235 0
1 322 331 0
1 -327 -321 0
1 327 253 0
1 326 262 0
1 -326 -253 0
1 326 -240 0
1 -243 -332 0
1 243 -322 0
1 -243 -234 0
1 243 333 0
1 -243 -328 0
1 264 -259 0
1 -264 260 0
1 264 -327 0
1 -264 -267 0
1 264 -334 0
1 -262 -247 0
1 262 -259 0
1 262 -327 0
1 -262 -329 0
1 -262 330 0
1 -262 164 0
1 262 273 0
1 -335 269 0
1 -335 -173 0
1 -335 331 0
1 -335 334 0
1 -335 271 0
1 -271 -260 0
1 271 -326 0
1 -330 331 0
1 -329 335 0
1 -329 -334 0
1 -334 -322 0
1 -290 -219 0
1 -290 279 0
1 -290 284 0
1 -290 288 0
1 -290 280 0
1 -288 -291 0
1 288 -289 0
1 -288 -279 0
1 -288 -284 0
1 -336 -291 0
1 -336 -337 0
1 -336 295 0
1 -295 -337 0
1 295 284 0
1 -295 -338 0
1 -339 293 0
1 339 -336 0
1 -339 -340 0
1 339 288 0
1 341 339 0
1 -341 294 0
1 -341 -288 0
1 -338 295 0
1 -338 -277 0
1 293 228 0
1 293 -342 0
1 293 -294 0
1 293 -292 0
1 -293 341 0
1 -294 231 0
1 294 -337 0
1 294 285 0
1 294 -341 0
1 294 343 0
1 344 345 0
1 344 -210 0
1 344 -343 0
1 346 345 0
1 346 -337 0
1 -346 -341 0
1 337 -336 0
1 337 279 0
1 -337 -294 0
1 337 -347 0
1 348 349 0
1 348 293 0
1 348 350 0
1 -348 337 0
1 -342 344 0
1 -342 -336 0
1 342 -350 0
1 342 295 0
1 -343 -293 0
1 -343 -280 0
1 -343 350 0
1 -343 -346 0
1 -343 -342 0
1 343 347 0
1 299 -348 0
1 -299 -337 0
1 299 208 0
1 -299 222 0
1 -301 -348 0
1 -301 345 0
1 301 -237 0
1 301 -351 0
1 -301 292 0
1 301 -299 0
1 311 -352 0
1 -311 -353 0
1 -311 296 0
1 311 -351 0
1 311 222 0
1 -309 -296 0
1 -309 -337 0
1 -309 -302 0
1 -309 354 0
1 -355 356 0
1 355 -301 0
1 -355 -307 0
1 345 -202 0
1 345 301 0
1 -345 355 0
1 345 -319 0
1 -345 311 0
1 -351 -352 0
1 351 -301 0
1 -351 -346 0
1 -351 299 0
1 -352 291 0
1 352 -351 0
1 -352 357 0
1 352 358 0
1 352 299 0
1 -307 -306 0
1 307 -230 0
1 307 354 0
1 307 347 0
1 307 305 0
1 306 -353 0
1 -306 -298 0
1 -306 355 0
1 319 303 0
1 319 -359 0
1 319 -355 0
1 -315 -230 0
1 -315 354 0
1 315 -360 0
1 354 306 0
1 354 -208 0
1 353 316 0
1 353 319 0
1 -302 361 0
1 302 309 0
1 302 362 0
1 302 -357 0
1 -302 307 0
1 -303 306 0
1 -303 -319 0
1 303 -302 0
1 -317 314 0
1 317 312 0
1 317 230 0
1 317 354 0
1 316 -312 0
1 316 354 0
1 316 310 0
1 -325 -363 0
1 -325 312 0
1 -325 -353 0
1 -325 359 0
1 325 -308 0
1 -325 -364 0
1 -325 -310 0
1 324 -361 0
1 -324 -353 0
1 324 359 0
1 -324 318 0
1 324 -354 0
1 324 360 0
1 -360 -316 0
1 -360 308 0
1 360 325 0
1 360 319 0
1 308 -316 0
1 308 360 0
1 308 -298 0
1 308 -325 0
1 -310 324 0
1 -310 317 0
1 310 319 0
1 -359 316 0
1 359 -296 0
1 359 365 0
1 323 -363 0
1 -323 -366 0
1 323 -312 0
1 323 308 0
1 -323 -367 0
1 -323 -360 0
1 332 262 0
1 -332 -363 0
1 -332 243 0
1 -332 323 0
1 332 367 0
1 332 318 0
1 332 320 0
1 -333 360 0
1 333 243 0
1 -333 308 0
1 333 367 0
1 -333 -368 0
1 368 -308 0
1 368 367 0
1 368 271 0
1 368 -360 0
1 -366 -324 0
1 -366 333 0
1 -366 -323 0
1 -367 332 0
1 -367 -325 0
1 -363 332 0
1 -363 -324 0
1 363 -333 0
1 -364 333 0
1 364 -325 0
1 364 -368 0
1 -347 369 0
1 347 342 0
1 347 -370 0
1 -347 -343 0
1 -350 -352 0
1 -350 -337 0
1 -358 -371 0
1 -358 -349 0
1 358 372 0
1 -373 -352 0
1 -373 -315 0
1 -373 374 0
1 -373 -358 0
1 340 356 0
1 340 357 0
1 370 373 0
1 370 -340 0
1 370 -347 0
1 369 373 0
1 369 350 0
1 -369 358 0
1 369 -375 0
1 375 -338 0
1 375 -347 0
1 357 -349 0
1 357 303 0
1 -357 340 0
1 -357 -374 0
1 -357 -317 0
1 -357 355 0
1 -357 302 0
1 356 -316 0
1 356 -374 0
1 356 -355 0
1 -356 357 0
1 356 370 0
1 -362 -371 0
1 362 361 0
1 362 -376 0
1 -362 -340 0
1 362 325 0
1 -362 -377 0
1 362 -302 0
1 -361 324 0
1 -361 340 0
1 361 -372 0
1 -361 -362 0
1 372 -349 0
1 372 -361 0
1 -372 373 0
1 -372 -365 0
1 372 362 0
1 372 -357 0
1 372 -358 0
1 349 -378 0
1 349 379 0
1 -349 358 0
1 -374 342 0
1 -374 -362 0
1 -374 357 0
1 371 356 0
1 -371 -374 0
1 379 -349 0
1 379 -303 0
1 379 353 0
1 -379 -372 0
1 -378 -380 0
1 365 -372 0
1 365 -377 0
1 -381 380 0
1 -381 359 0
1 -381 310 0
1 -381 368 0
1 -377 -381 0
1 376 378 0
1 376 -345 0
1 -376 -362 0
1 382 -381 0
1 -382 365 0
1 382 -351 0
1 382 -362 0
1 -380 382 0
